(set-info :smt-lib-version 2.6)
(set-logic UFDT)
(set-info :source |
Generated by: Johannes Schoisswohl
Generated on: 2020-12-21
Application: Replacing structural induction by a conservative extension
Target solver: CVC4, Vampire, Z3
Generator: https://github.com/joe-hauns/msc-automating-induction-via-reflection
Publications: Automated Induction by Reflection ( https://doi.org/10.34726/hss.2020.75342 )
|)
(set-logic :category "crafted")
(declare-datatypes ((nat 0)) (((zero) (s (s0 nat)))))
(declare-fun leq (nat nat) Bool)
(assert (forall ((x nat)) (leq x x)))
(assert (forall ((x nat) (y nat)) (=> (leq x y) (leq x (s y)))))
(assert (not (forall ((x nat)) (leq zero x))))
(check-sat)
